p cnf 965 2478
51 -2 -698 0
-51 2 0
-51 698 0
52 -51 -699 0
-52 51 0
-52 699 0
53 -4 -700 0
-53 4 0
-53 700 0
54 -53 -701 0
-54 53 0
-54 701 0
55 -702 -703 0
-55 702 0
-55 703 0
56 -7 -6 0
-56 7 0
-56 6 0
57 -56 -8 0
-57 56 0
-57 8 0
58 -704 -55 0
-58 704 0
-58 55 0
59 -10 -705 0
-59 10 0
-59 705 0
60 -59 -701 0
-60 59 0
-60 701 0
61 -706 -58 0
-61 706 0
-61 58 0
62 -12 -11 0
-62 12 0
-62 11 0
63 -62 -13 0
-63 62 0
-63 13 0
64 -707 -61 0
-64 707 0
-64 61 0
65 -708 -14 0
-65 708 0
-65 14 0
66 -65 -16 0
-66 65 0
-66 16 0
67 -709 -64 0
-67 709 0
-67 64 0
68 -18 -17 0
-68 18 0
-68 17 0
69 -68 -710 0
-69 68 0
-69 710 0
70 -711 -67 0
-70 711 0
-70 67 0
71 -19 -712 0
-71 19 0
-71 712 0
72 -71 -20 0
-72 71 0
-72 20 0
73 -713 -70 0
-73 713 0
-73 70 0
74 -21 -712 0
-74 21 0
-74 712 0
75 -74 -22 0
-75 74 0
-75 22 0
76 -714 -73 0
-76 714 0
-76 73 0
77 -23 -16 0
-77 23 0
-77 16 0
78 -77 -24 0
-78 77 0
-78 24 0
79 -715 -76 0
-79 715 0
-79 76 0
80 -25 -6 0
-80 25 0
-80 6 0
81 -80 -698 0
-81 80 0
-81 698 0
82 -716 -79 0
-82 716 0
-82 79 0
83 -26 -16 0
-83 26 0
-83 16 0
84 -83 -13 0
-84 83 0
-84 13 0
85 -717 -82 0
-85 717 0
-85 82 0
86 -27 -718 0
-86 27 0
-86 718 0
87 -86 -3 0
-87 86 0
-87 3 0
88 -719 -85 0
-88 719 0
-88 85 0
89 -29 -28 0
-89 29 0
-89 28 0
90 -89 -720 0
-90 89 0
-90 720 0
91 -721 -88 0
-91 721 0
-91 88 0
92 -6 -698 0
-92 6 0
-92 698 0
93 -92 -722 0
-93 92 0
-93 722 0
94 -723 -91 0
-94 723 0
-94 91 0
95 -26 -701 0
-95 26 0
-95 701 0
96 -95 -724 0
-96 95 0
-96 724 0
97 -725 -94 0
-97 725 0
-97 94 0
98 -726 -727 0
-98 726 0
-98 727 0
99 -98 -33 0
-99 98 0
-99 33 0
100 -728 -97 0
-100 728 0
-100 97 0
101 -34 -28 0
-101 34 0
-101 28 0
102 -101 -12 0
-102 101 0
-102 12 0
103 -729 -100 0
-103 729 0
-103 100 0
104 -730 -731 0
-104 730 0
-104 731 0
105 -104 -726 0
-105 104 0
-105 726 0
106 -732 -103 0
-106 732 0
-106 103 0
107 -38 -37 0
-107 38 0
-107 37 0
108 -107 -39 0
-108 107 0
-108 39 0
109 -733 -106 0
-109 733 0
-109 106 0
110 -734 -735 0
-110 734 0
-110 735 0
111 -110 -12 0
-111 110 0
-111 12 0
112 -736 -109 0
-112 736 0
-112 109 0
113 -18 -734 0
-113 18 0
-113 734 0
114 -113 -737 0
-114 113 0
-114 737 0
115 -738 -112 0
-115 738 0
-115 112 0
116 -739 -712 0
-116 739 0
-116 712 0
117 -116 -41 0
-117 116 0
-117 41 0
118 -740 -115 0
-118 740 0
-118 115 0
119 -741 -6 0
-119 741 0
-119 6 0
120 -119 -718 0
-120 119 0
-120 718 0
121 -742 -118 0
-121 742 0
-121 118 0
122 -17 -734 0
-122 17 0
-122 734 0
123 -122 -737 0
-123 122 0
-123 737 0
124 -743 -121 0
-124 743 0
-124 121 0
125 -43 -744 0
-125 43 0
-125 744 0
126 -125 -24 0
-126 125 0
-126 24 0
127 -745 -124 0
-127 745 0
-127 124 0
128 -101 -724 0
-128 101 0
-128 724 0
129 -746 -127 0
-129 746 0
-129 127 0
130 -31 -14 0
-130 31 0
-130 14 0
131 -130 -5 0
-131 130 0
-131 5 0
132 -747 -129 0
-132 747 0
-132 129 0
133 -20 -6 0
-133 20 0
-133 6 0
134 -133 -16 0
-134 133 0
-134 16 0
135 -748 -132 0
-135 748 0
-135 132 0
136 -749 -735 0
-136 749 0
-136 735 0
137 -136 -750 0
-137 136 0
-137 750 0
138 -751 -135 0
-138 751 0
-138 135 0
139 -37 -698 0
-139 37 0
-139 698 0
140 -139 -727 0
-140 139 0
-140 727 0
141 -752 -138 0
-141 752 0
-141 138 0
142 -41 -26 0
-142 41 0
-142 26 0
143 -142 -4 0
-143 142 0
-143 4 0
144 -753 -141 0
-144 753 0
-144 141 0
145 -44 -727 0
-145 44 0
-145 727 0
146 -145 -45 0
-146 145 0
-146 45 0
147 -754 -144 0
-147 754 0
-147 144 0
148 -14 -8 0
-148 14 0
-148 8 0
149 -148 -33 0
-149 148 0
-149 33 0
150 -755 -147 0
-150 755 0
-150 147 0
151 -756 -735 0
-151 756 0
-151 735 0
152 -151 -9 0
-152 151 0
-152 9 0
153 -757 -150 0
-153 757 0
-153 150 0
154 -47 -26 0
-154 47 0
-154 26 0
155 -154 -758 0
-155 154 0
-155 758 0
156 -759 -153 0
-156 759 0
-156 153 0
157 -760 -11 0
-157 760 0
-157 11 0
158 -157 -14 0
-158 157 0
-158 14 0
159 -761 -156 0
-159 761 0
-159 156 0
160 -26 -19 0
-160 26 0
-160 19 0
161 -160 -12 0
-161 160 0
-161 12 0
162 -762 -159 0
-162 762 0
-162 159 0
163 -47 -37 0
-163 47 0
-163 37 0
164 -163 -750 0
-164 163 0
-164 750 0
165 -763 -162 0
-165 763 0
-165 162 0
166 -48 -9 0
-166 48 0
-166 9 0
167 -166 -16 0
-167 166 0
-167 16 0
168 -764 -165 0
-168 764 0
-168 165 0
169 -43 -741 0
-169 43 0
-169 741 0
170 -169 -749 0
-170 169 0
-170 749 0
171 -765 -168 0
-171 765 0
-171 168 0
172 -27 -766 0
-172 27 0
-172 766 0
173 -172 -47 0
-173 172 0
-173 47 0
174 -767 -171 0
-174 767 0
-174 171 0
175 -768 -769 0
-175 768 0
-175 769 0
176 -175 -49 0
-176 175 0
-176 49 0
177 -770 -174 0
-177 770 0
-177 174 0
178 -36 -769 0
-178 36 0
-178 769 0
179 -178 -771 0
-179 178 0
-179 771 0
180 -772 -177 0
-180 772 0
-180 177 0
181 -13 -2 0
-181 13 0
-181 2 0
182 -181 -45 0
-182 181 0
-182 45 0
183 -773 -180 0
-183 773 0
-183 180 0
184 -774 -739 0
-184 774 0
-184 739 0
185 -184 -14 0
-185 184 0
-185 14 0
186 -775 -183 0
-186 775 0
-186 183 0
187 -37 -708 0
-187 37 0
-187 708 0
188 -187 -23 0
-188 187 0
-188 23 0
189 -776 -186 0
-189 776 0
-189 186 0
190 -750 -708 0
-190 750 0
-190 708 0
191 -190 -36 0
-191 190 0
-191 36 0
192 -777 -189 0
-192 777 0
-192 189 0
193 -47 -14 0
-193 47 0
-193 14 0
194 -193 -24 0
-194 193 0
-194 24 0
195 -778 -192 0
-195 778 0
-195 192 0
196 -758 -779 0
-196 758 0
-196 779 0
197 -196 -24 0
-197 196 0
-197 24 0
198 -780 -195 0
-198 780 0
-198 195 0
199 -718 -15 0
-199 718 0
-199 15 0
200 -199 -781 0
-200 199 0
-200 781 0
201 -782 -198 0
-201 782 0
-201 198 0
202 -741 -712 0
-202 741 0
-202 712 0
203 -202 -781 0
-203 202 0
-203 781 0
204 -783 -201 0
-204 783 0
-204 201 0
205 -40 -6 0
-205 40 0
-205 6 0
206 -205 -49 0
-206 205 0
-206 49 0
207 -784 -204 0
-207 784 0
-207 204 0
208 -744 -749 0
-208 744 0
-208 749 0
209 -208 -32 0
-209 208 0
-209 32 0
210 -785 -207 0
-210 785 0
-210 207 0
211 -779 -13 0
-211 779 0
-211 13 0
212 -211 -724 0
-212 211 0
-212 724 0
213 -786 -210 0
-213 786 0
-213 210 0
214 -31 -25 0
-214 31 0
-214 25 0
215 -214 -787 0
-215 214 0
-215 787 0
216 -788 -213 0
-216 788 0
-216 213 0
217 -18 -14 0
-217 18 0
-217 14 0
218 -217 -41 0
-218 217 0
-218 41 0
219 -789 -216 0
-219 789 0
-219 216 0
220 -790 -791 0
-220 790 0
-220 791 0
221 -220 -712 0
-221 220 0
-221 712 0
222 -792 -219 0
-222 792 0
-222 219 0
223 -756 -42 0
-223 756 0
-223 42 0
224 -223 -741 0
-224 223 0
-224 741 0
225 -793 -222 0
-225 793 0
-225 222 0
226 -50 -737 0
-226 50 0
-226 737 0
227 -226 -33 0
-227 226 0
-227 33 0
228 -794 -225 0
-228 794 0
-228 225 0
229 -795 -750 0
-229 795 0
-229 750 0
230 -229 -45 0
-230 229 0
-230 45 0
231 -796 -228 0
-231 796 0
-231 228 0
232 -49 -1 0
-232 49 0
-232 1 0
233 -232 -32 0
-233 232 0
-233 32 0
234 -797 -231 0
-234 797 0
-234 231 0
235 -29 -1 0
-235 29 0
-235 1 0
236 -235 -724 0
-236 235 0
-236 724 0
237 -798 -234 0
-237 798 0
-237 234 0
238 -27 -708 0
-238 27 0
-238 708 0
239 -238 -701 0
-239 238 0
-239 701 0
240 -799 -237 0
-240 799 0
-240 237 0
241 -800 -10 0
-241 800 0
-241 10 0
242 -241 -791 0
-242 241 0
-242 791 0
243 -801 -240 0
-243 801 0
-243 240 0
244 -43 -1 0
-244 43 0
-244 1 0
245 -244 -3 0
-245 244 0
-245 3 0
246 -802 -243 0
-246 802 0
-246 243 0
247 -36 -727 0
-247 36 0
-247 727 0
248 -247 -737 0
-248 247 0
-248 737 0
249 -803 -246 0
-249 803 0
-249 246 0
250 -779 -29 0
-250 779 0
-250 29 0
251 -250 -700 0
-251 250 0
-251 700 0
252 -804 -249 0
-252 804 0
-252 249 0
253 -21 -805 0
-253 21 0
-253 805 0
254 -253 -806 0
-254 253 0
-254 806 0
255 -807 -252 0
-255 807 0
-255 252 0
256 -768 -808 0
-256 768 0
-256 808 0
257 -256 -726 0
-257 256 0
-257 726 0
258 -809 -255 0
-258 809 0
-258 255 0
259 -38 -800 0
-259 38 0
-259 800 0
260 -259 -727 0
-260 259 0
-260 727 0
261 -810 -258 0
-261 810 0
-261 258 0
262 -28 -712 0
-262 28 0
-262 712 0
263 -262 -787 0
-263 262 0
-263 787 0
264 -811 -261 0
-264 811 0
-264 261 0
265 -812 -806 0
-265 812 0
-265 806 0
266 -265 -813 0
-266 265 0
-266 813 0
267 -814 -264 0
-267 814 0
-267 264 0
268 -730 -815 0
-268 730 0
-268 815 0
269 -268 -724 0
-269 268 0
-269 724 0
270 -816 -267 0
-270 816 0
-270 267 0
271 -760 -6 0
-271 760 0
-271 6 0
272 -271 -14 0
-272 271 0
-272 14 0
273 -817 -270 0
-273 817 0
-273 270 0
274 -31 -17 0
-274 31 0
-274 17 0
275 -274 -33 0
-275 274 0
-275 33 0
276 -818 -273 0
-276 818 0
-276 273 0
277 -23 -1 0
-277 23 0
-277 1 0
278 -277 -40 0
-278 277 0
-278 40 0
279 -819 -276 0
-279 819 0
-279 276 0
280 -718 -18 0
-280 718 0
-280 18 0
281 -280 -5 0
-281 280 0
-281 5 0
282 -820 -279 0
-282 820 0
-282 279 0
283 -9 -698 0
-283 9 0
-283 698 0
284 -283 -750 0
-284 283 0
-284 750 0
285 -821 -282 0
-285 821 0
-285 282 0
286 -25 -735 0
-286 25 0
-286 735 0
287 -286 -822 0
-287 286 0
-287 822 0
288 -823 -285 0
-288 823 0
-288 285 0
289 -744 -9 0
-289 744 0
-289 9 0
290 -289 -734 0
-290 289 0
-290 734 0
291 -824 -288 0
-291 824 0
-291 288 0
292 -734 -6 0
-292 734 0
-292 6 0
293 -292 -768 0
-293 292 0
-293 768 0
294 -825 -291 0
-294 825 0
-294 291 0
295 -42 -14 0
-295 42 0
-295 14 0
296 -295 -822 0
-296 295 0
-296 822 0
297 -826 -294 0
-297 826 0
-297 294 0
298 -727 -6 0
-298 727 0
-298 6 0
299 -298 -724 0
-299 298 0
-299 724 0
300 -827 -297 0
-300 827 0
-300 297 0
301 -744 -21 0
-301 744 0
-301 21 0
302 -301 -33 0
-302 301 0
-302 33 0
303 -828 -300 0
-303 828 0
-303 300 0
304 -46 -9 0
-304 46 0
-304 9 0
305 -304 -18 0
-305 304 0
-305 18 0
306 -829 -303 0
-306 829 0
-306 303 0
307 -741 -19 0
-307 741 0
-307 19 0
308 -307 -737 0
-308 307 0
-308 737 0
309 -830 -306 0
-309 830 0
-309 306 0
310 -790 -769 0
-310 790 0
-310 769 0
311 -310 -734 0
-311 310 0
-311 734 0
312 -831 -309 0
-312 831 0
-312 309 0
313 -739 -805 0
-313 739 0
-313 805 0
314 -313 -791 0
-314 313 0
-314 791 0
315 -832 -312 0
-315 832 0
-315 312 0
316 -47 -708 0
-316 47 0
-316 708 0
317 -316 -833 0
-317 316 0
-317 833 0
318 -834 -315 0
-318 834 0
-318 315 0
319 -47 -734 0
-319 47 0
-319 734 0
320 -319 -720 0
-320 319 0
-320 720 0
321 -835 -318 0
-321 835 0
-321 318 0
322 -47 -769 0
-322 47 0
-322 769 0
323 -322 -758 0
-323 322 0
-323 758 0
324 -836 -321 0
-324 836 0
-324 321 0
325 -34 -739 0
-325 34 0
-325 739 0
326 -325 -50 0
-326 325 0
-326 50 0
327 -837 -324 0
-327 837 0
-327 324 0
328 -744 -806 0
-328 744 0
-328 806 0
329 -328 -815 0
-329 328 0
-329 815 0
330 -838 -327 0
-330 838 0
-330 327 0
331 -43 -779 0
-331 43 0
-331 779 0
332 -331 -730 0
-332 331 0
-332 730 0
333 -839 -330 0
-333 839 0
-333 330 0
334 -744 -705 0
-334 744 0
-334 705 0
335 -334 -708 0
-335 334 0
-335 708 0
336 -840 -333 0
-336 840 0
-336 333 0
337 -750 -739 0
-337 750 0
-337 739 0
338 -337 -771 0
-338 337 0
-338 771 0
339 -841 -336 0
-339 841 0
-339 336 0
340 -26 -7 0
-340 26 0
-340 7 0
341 -340 -29 0
-341 340 0
-341 29 0
342 -842 -339 0
-342 842 0
-342 339 0
343 -24 -833 0
-343 24 0
-343 833 0
344 -343 -701 0
-344 343 0
-344 701 0
345 -843 -342 0
-345 843 0
-345 342 0
346 -47 -12 0
-346 47 0
-346 12 0
347 -346 -23 0
-347 346 0
-347 23 0
348 -844 -345 0
-348 844 0
-348 345 0
349 -795 -760 0
-349 795 0
-349 760 0
350 -349 -815 0
-350 349 0
-350 815 0
351 -845 -348 0
-351 845 0
-351 348 0
352 -739 -705 0
-352 739 0
-352 705 0
353 -352 -16 0
-353 352 0
-353 16 0
354 -846 -351 0
-354 846 0
-354 351 0
355 -40 -815 0
-355 40 0
-355 815 0
356 -355 -45 0
-356 355 0
-356 45 0
357 -847 -354 0
-357 847 0
-357 354 0
358 -48 -46 0
-358 48 0
-358 46 0
359 -358 -23 0
-359 358 0
-359 23 0
360 -848 -357 0
-360 848 0
-360 357 0
361 -34 -722 0
-361 34 0
-361 722 0
362 -361 -813 0
-362 361 0
-362 813 0
363 -849 -360 0
-363 849 0
-363 360 0
364 -151 -25 0
-364 151 0
-364 25 0
365 -850 -363 0
-365 850 0
-365 363 0
366 -38 -851 0
-366 38 0
-366 851 0
367 -366 -22 0
-367 366 0
-367 22 0
368 -852 -365 0
-368 852 0
-368 365 0
369 -805 -698 0
-369 805 0
-369 698 0
370 -369 -812 0
-370 369 0
-370 812 0
371 -853 -368 0
-371 853 0
-371 368 0
372 -42 -11 0
-372 42 0
-372 11 0
373 -372 -851 0
-373 372 0
-373 851 0
374 -854 -371 0
-374 854 0
-374 371 0
375 -35 -14 0
-375 35 0
-375 14 0
376 -375 -37 0
-376 375 0
-376 37 0
377 -855 -374 0
-377 855 0
-377 374 0
378 -25 -2 0
-378 25 0
-378 2 0
379 -378 -724 0
-379 378 0
-379 724 0
380 -856 -377 0
-380 856 0
-380 377 0
381 -46 -791 0
-381 46 0
-381 791 0
382 -381 -8 0
-382 381 0
-382 8 0
383 -857 -380 0
-383 857 0
-383 380 0
384 -42 -774 0
-384 42 0
-384 774 0
385 -384 -14 0
-385 384 0
-385 14 0
386 -858 -383 0
-386 858 0
-386 383 0
387 -712 -805 0
-387 712 0
-387 805 0
388 -387 -806 0
-388 387 0
-388 806 0
389 -859 -386 0
-389 859 0
-389 386 0
390 -760 -822 0
-390 760 0
-390 822 0
391 -390 -20 0
-391 390 0
-391 20 0
392 -860 -389 0
-392 860 0
-392 389 0
393 -28 -1 0
-393 28 0
-393 1 0
394 -393 -30 0
-394 393 0
-394 30 0
395 -861 -392 0
-395 861 0
-395 392 0
396 -28 -27 0
-396 28 0
-396 27 0
397 -396 -708 0
-397 396 0
-397 708 0
398 -862 -395 0
-398 862 0
-398 395 0
399 -65 -2 0
-399 65 0
-399 2 0
400 -863 -398 0
-400 863 0
-400 398 0
401 -790 -31 0
-401 790 0
-401 31 0
402 -401 -30 0
-402 401 0
-402 30 0
403 -864 -400 0
-403 864 0
-403 400 0
404 -739 -735 0
-404 739 0
-404 735 0
405 -404 -722 0
-405 404 0
-405 722 0
406 -865 -403 0
-406 865 0
-406 403 0
407 -866 -760 0
-407 866 0
-407 760 0
408 -407 -710 0
-408 407 0
-408 710 0
409 -867 -406 0
-409 867 0
-409 406 0
410 -730 -774 0
-410 730 0
-410 774 0
411 -410 -33 0
-411 410 0
-411 33 0
412 -868 -409 0
-412 868 0
-412 409 0
413 -39 -833 0
-413 39 0
-413 833 0
414 -413 -724 0
-414 413 0
-414 724 0
415 -869 -412 0
-415 869 0
-415 412 0
416 -781 -739 0
-416 781 0
-416 739 0
417 -416 -2 0
-417 416 0
-417 2 0
418 -870 -415 0
-418 870 0
-418 415 0
419 -781 -718 0
-419 781 0
-419 718 0
420 -419 -701 0
-420 419 0
-420 701 0
421 -871 -418 0
-421 871 0
-421 418 0
422 -758 -741 0
-422 758 0
-422 741 0
423 -422 -813 0
-423 422 0
-423 813 0
424 -872 -421 0
-424 872 0
-424 421 0
425 -37 -19 0
-425 37 0
-425 19 0
426 -425 -812 0
-426 425 0
-426 812 0
427 -873 -424 0
-427 873 0
-427 424 0
428 -795 -808 0
-428 795 0
-428 808 0
429 -428 -833 0
-429 428 0
-429 833 0
430 -874 -427 0
-430 874 0
-430 427 0
431 -42 -698 0
-431 42 0
-431 698 0
432 -431 -37 0
-432 431 0
-432 37 0
433 -875 -430 0
-433 875 0
-433 430 0
434 -18 -766 0
-434 18 0
-434 766 0
435 -434 -22 0
-435 434 0
-435 22 0
436 -876 -433 0
-436 876 0
-436 433 0
437 -774 -17 0
-437 774 0
-437 17 0
438 -437 -40 0
-438 437 0
-438 40 0
439 -877 -436 0
-439 877 0
-439 436 0
440 -14 -705 0
-440 14 0
-440 705 0
441 -440 -39 0
-441 440 0
-441 39 0
442 -878 -439 0
-442 878 0
-442 439 0
443 -741 -708 0
-443 741 0
-443 708 0
444 -443 -815 0
-444 443 0
-444 815 0
445 -879 -442 0
-445 879 0
-445 442 0
446 -866 -42 0
-446 866 0
-446 42 0
447 -446 -38 0
-447 446 0
-447 38 0
448 -880 -445 0
-448 880 0
-448 445 0
449 -769 -9 0
-449 769 0
-449 9 0
450 -449 -40 0
-450 449 0
-450 40 0
451 -881 -448 0
-451 881 0
-451 448 0
452 -17 -3 0
-452 17 0
-452 3 0
453 -452 -787 0
-453 452 0
-453 787 0
454 -882 -451 0
-454 882 0
-454 451 0
455 -720 -749 0
-455 720 0
-455 749 0
456 -455 -3 0
-456 455 0
-456 3 0
457 -883 -454 0
-457 883 0
-457 454 0
458 -718 -1 0
-458 718 0
-458 1 0
459 -458 -806 0
-459 458 0
-459 806 0
460 -884 -457 0
-460 884 0
-460 457 0
461 -744 -718 0
-461 744 0
-461 718 0
462 -461 -800 0
-462 461 0
-462 800 0
463 -885 -460 0
-463 885 0
-463 460 0
464 -42 -18 0
-464 42 0
-464 18 0
465 -464 -48 0
-465 464 0
-465 48 0
466 -886 -463 0
-466 886 0
-466 463 0
467 -750 -730 0
-467 750 0
-467 730 0
468 -467 -40 0
-468 467 0
-468 40 0
469 -887 -466 0
-469 887 0
-469 466 0
470 -25 -771 0
-470 25 0
-470 771 0
471 -470 -815 0
-471 470 0
-471 815 0
472 -888 -469 0
-472 888 0
-472 469 0
473 -30 -8 0
-473 30 0
-473 8 0
474 -473 -730 0
-474 473 0
-474 730 0
475 -889 -472 0
-475 889 0
-475 472 0
476 -29 -808 0
-476 29 0
-476 808 0
477 -476 -18 0
-477 476 0
-477 18 0
478 -890 -475 0
-478 890 0
-478 475 0
479 -35 -19 0
-479 35 0
-479 19 0
480 -479 -700 0
-480 479 0
-480 700 0
481 -891 -478 0
-481 891 0
-481 478 0
482 -21 -6 0
-482 21 0
-482 6 0
483 -482 -712 0
-483 482 0
-483 712 0
484 -892 -481 0
-484 892 0
-484 481 0
485 -756 -808 0
-485 756 0
-485 808 0
486 -485 -3 0
-486 485 0
-486 3 0
487 -893 -484 0
-487 893 0
-487 484 0
488 -29 -26 0
-488 29 0
-488 26 0
489 -488 -866 0
-489 488 0
-489 866 0
490 -894 -487 0
-490 894 0
-490 487 0
491 -744 -4 0
-491 744 0
-491 4 0
492 -491 -24 0
-492 491 0
-492 24 0
493 -895 -490 0
-493 895 0
-493 490 0
494 -17 -749 0
-494 17 0
-494 749 0
495 -494 -27 0
-495 494 0
-495 27 0
496 -896 -493 0
-496 896 0
-496 493 0
497 -27 -739 0
-497 27 0
-497 739 0
498 -497 -3 0
-498 497 0
-498 3 0
499 -897 -496 0
-499 897 0
-499 496 0
500 -20 -766 0
-500 20 0
-500 766 0
501 -500 -39 0
-501 500 0
-501 39 0
502 -898 -499 0
-502 898 0
-502 499 0
503 -37 -35 0
-503 37 0
-503 35 0
504 -503 -806 0
-504 503 0
-504 806 0
505 -899 -502 0
-505 899 0
-505 502 0
506 -750 -779 0
-506 750 0
-506 779 0
507 -506 -39 0
-507 506 0
-507 39 0
508 -900 -505 0
-508 900 0
-508 505 0
509 -779 -833 0
-509 779 0
-509 833 0
510 -509 -45 0
-510 509 0
-510 45 0
511 -901 -508 0
-511 901 0
-511 508 0
512 -43 -902 0
-512 43 0
-512 902 0
513 -512 -700 0
-513 512 0
-513 700 0
514 -903 -511 0
-514 903 0
-514 511 0
515 -39 -2 0
-515 39 0
-515 2 0
516 -515 -49 0
-516 515 0
-516 49 0
517 -904 -514 0
-517 904 0
-517 514 0
518 -737 -27 0
-518 737 0
-518 27 0
519 -518 -22 0
-519 518 0
-519 22 0
520 -905 -517 0
-520 905 0
-520 517 0
521 -781 -1 0
-521 781 0
-521 1 0
522 -521 -13 0
-522 521 0
-522 13 0
523 -906 -520 0
-523 906 0
-523 520 0
524 -791 -12 0
-524 791 0
-524 12 0
525 -524 -48 0
-525 524 0
-525 48 0
526 -907 -523 0
-526 907 0
-526 523 0
527 -30 -29 0
-527 30 0
-527 29 0
528 -527 -45 0
-528 527 0
-528 45 0
529 -908 -526 0
-529 908 0
-529 526 0
530 -812 -734 0
-530 812 0
-530 734 0
531 -530 -32 0
-531 530 0
-531 32 0
532 -909 -529 0
-532 909 0
-532 529 0
533 -774 -712 0
-533 774 0
-533 712 0
534 -533 -22 0
-534 533 0
-534 22 0
535 -910 -532 0
-535 910 0
-535 532 0
536 -760 -774 0
-536 760 0
-536 774 0
537 -536 -24 0
-537 536 0
-537 24 0
538 -911 -535 0
-538 911 0
-538 535 0
539 -9 -6 0
-539 9 0
-539 6 0
540 -539 -45 0
-540 539 0
-540 45 0
541 -912 -538 0
-541 912 0
-541 538 0
542 -34 -769 0
-542 34 0
-542 769 0
543 -542 -720 0
-543 542 0
-543 720 0
544 -913 -541 0
-544 913 0
-544 541 0
545 -730 -791 0
-545 730 0
-545 791 0
546 -545 -700 0
-546 545 0
-546 700 0
547 -914 -544 0
-547 914 0
-547 544 0
548 -758 -15 0
-548 758 0
-548 15 0
549 -548 -700 0
-549 548 0
-549 700 0
550 -915 -547 0
-550 915 0
-550 547 0
551 -779 -34 0
-551 779 0
-551 34 0
552 -551 -730 0
-552 551 0
-552 730 0
553 -916 -550 0
-553 916 0
-553 550 0
554 -808 -739 0
-554 808 0
-554 739 0
555 -554 -750 0
-555 554 0
-555 750 0
556 -917 -553 0
-556 917 0
-556 553 0
557 -866 -36 0
-557 866 0
-557 36 0
558 -557 -787 0
-558 557 0
-558 787 0
559 -918 -556 0
-559 918 0
-559 556 0
560 -46 -18 0
-560 46 0
-560 18 0
561 -560 -806 0
-561 560 0
-561 806 0
562 -919 -559 0
-562 919 0
-562 559 0
563 -779 -20 0
-563 779 0
-563 20 0
564 -563 -758 0
-564 563 0
-564 758 0
565 -920 -562 0
-565 920 0
-565 562 0
566 -205 -813 0
-566 205 0
-566 813 0
567 -921 -565 0
-567 921 0
-567 565 0
568 -14 -7 0
-568 14 0
-568 7 0
569 -568 -3 0
-569 568 0
-569 3 0
570 -922 -567 0
-570 922 0
-570 567 0
571 -15 -749 0
-571 15 0
-571 749 0
572 -571 -50 0
-572 571 0
-572 50 0
573 -923 -570 0
-573 923 0
-573 570 0
574 -739 -11 0
-574 739 0
-574 11 0
575 -574 -2 0
-575 574 0
-575 2 0
576 -924 -573 0
-576 924 0
-576 573 0
577 -768 -41 0
-577 768 0
-577 41 0
578 -577 -700 0
-578 577 0
-578 700 0
579 -925 -576 0
-579 925 0
-579 576 0
580 -289 -730 0
-580 289 0
-580 730 0
581 -926 -579 0
-581 926 0
-581 579 0
582 -779 -4 0
-582 779 0
-582 4 0
583 -582 -726 0
-583 582 0
-583 726 0
584 -927 -581 0
-584 927 0
-584 581 0
585 -30 -19 0
-585 30 0
-585 19 0
586 -585 -727 0
-586 585 0
-586 727 0
587 -928 -584 0
-587 928 0
-587 584 0
588 -750 -806 0
-588 750 0
-588 806 0
589 -588 -699 0
-589 588 0
-589 699 0
590 -929 -587 0
-590 929 0
-590 587 0
591 -22 -19 0
-591 22 0
-591 19 0
592 -591 -700 0
-592 591 0
-592 700 0
593 -930 -590 0
-593 930 0
-593 590 0
594 -42 -35 0
-594 42 0
-594 35 0
595 -594 -25 0
-595 594 0
-595 25 0
596 -931 -593 0
-596 931 0
-596 593 0
597 -31 -26 0
-597 31 0
-597 26 0
598 -597 -812 0
-598 597 0
-598 812 0
599 -932 -596 0
-599 932 0
-599 596 0
600 -46 -731 0
-600 46 0
-600 731 0
601 -600 -2 0
-601 600 0
-601 2 0
602 -933 -599 0
-602 933 0
-602 599 0
603 -741 -14 0
-603 741 0
-603 14 0
604 -603 -734 0
-604 603 0
-604 734 0
605 -934 -602 0
-605 934 0
-605 602 0
606 -756 -769 0
-606 756 0
-606 769 0
607 -606 -902 0
-607 606 0
-607 902 0
608 -935 -605 0
-608 935 0
-608 605 0
609 -25 -698 0
-609 25 0
-609 698 0
610 -609 -722 0
-610 609 0
-610 722 0
611 -936 -608 0
-611 936 0
-611 608 0
612 -712 -6 0
-612 712 0
-612 6 0
613 -612 -724 0
-613 612 0
-613 724 0
614 -937 -611 0
-614 937 0
-614 611 0
615 -708 -8 0
-615 708 0
-615 8 0
616 -615 -771 0
-616 615 0
-616 771 0
617 -938 -614 0
-617 938 0
-617 614 0
618 -41 -9 0
-618 41 0
-618 9 0
619 -618 -737 0
-619 618 0
-619 737 0
620 -939 -617 0
-620 939 0
-620 617 0
621 -500 -699 0
-621 500 0
-621 699 0
622 -940 -620 0
-622 940 0
-622 620 0
623 -26 -21 0
-623 26 0
-623 21 0
624 -623 -29 0
-624 623 0
-624 29 0
625 -941 -622 0
-625 941 0
-625 622 0
626 -29 -10 0
-626 29 0
-626 10 0
627 -626 -30 0
-627 626 0
-627 30 0
628 -942 -625 0
-628 942 0
-628 625 0
629 -790 -800 0
-629 790 0
-629 800 0
630 -629 -822 0
-630 629 0
-630 822 0
631 -943 -628 0
-631 943 0
-631 628 0
632 -768 -35 0
-632 768 0
-632 35 0
633 -632 -710 0
-633 632 0
-633 710 0
634 -944 -631 0
-634 944 0
-634 631 0
635 -766 -833 0
-635 766 0
-635 833 0
636 -635 -3 0
-636 635 0
-636 3 0
637 -945 -634 0
-637 945 0
-637 634 0
638 -44 -27 0
-638 44 0
-638 27 0
639 -638 -2 0
-639 638 0
-639 2 0
640 -946 -637 0
-640 946 0
-640 637 0
641 -19 -11 0
-641 19 0
-641 11 0
642 -641 -43 0
-642 641 0
-642 43 0
643 -947 -640 0
-643 947 0
-643 640 0
644 -731 -727 0
-644 731 0
-644 727 0
645 -644 -724 0
-645 644 0
-645 724 0
646 -948 -643 0
-646 948 0
-646 643 0
647 -46 -27 0
-647 46 0
-647 27 0
648 -647 -18 0
-648 647 0
-648 18 0
649 -949 -646 0
-649 949 0
-649 646 0
650 -750 -37 0
-650 750 0
-650 37 0
651 -650 -33 0
-651 650 0
-651 33 0
652 -950 -649 0
-652 950 0
-652 649 0
653 -26 -771 0
-653 26 0
-653 771 0
654 -653 -49 0
-654 653 0
-654 49 0
655 -951 -652 0
-655 951 0
-655 652 0
656 -739 -10 0
-656 739 0
-656 10 0
657 -656 -712 0
-657 656 0
-657 712 0
658 -952 -655 0
-658 952 0
-658 655 0
659 -43 -28 0
-659 43 0
-659 28 0
660 -659 -41 0
-660 659 0
-660 41 0
661 -953 -658 0
-661 953 0
-661 658 0
662 -27 -805 0
-662 27 0
-662 805 0
663 -662 -833 0
-663 662 0
-663 833 0
664 -954 -661 0
-664 954 0
-664 661 0
665 -791 -16 0
-665 791 0
-665 16 0
666 -665 -5 0
-666 665 0
-666 5 0
667 -955 -664 0
-667 955 0
-667 664 0
668 -50 -705 0
-668 50 0
-668 705 0
669 -668 -2 0
-669 668 0
-669 2 0
670 -956 -667 0
-670 956 0
-670 667 0
671 -750 -19 0
-671 750 0
-671 19 0
672 -671 -833 0
-672 671 0
-672 833 0
673 -957 -670 0
-673 957 0
-673 670 0
674 -808 -1 0
-674 808 0
-674 1 0
675 -674 -779 0
-675 674 0
-675 779 0
676 -958 -673 0
-676 958 0
-676 673 0
677 -791 -9 0
-677 791 0
-677 9 0
678 -677 -15 0
-678 677 0
-678 15 0
679 -959 -676 0
-679 959 0
-679 676 0
680 -781 -749 0
-680 781 0
-680 749 0
681 -680 -24 0
-681 680 0
-681 24 0
682 -960 -679 0
-682 960 0
-682 679 0
683 -28 -735 0
-683 28 0
-683 735 0
684 -683 -41 0
-684 683 0
-684 41 0
685 -961 -682 0
-685 961 0
-685 682 0
686 -768 -722 0
-686 768 0
-686 722 0
687 -686 -700 0
-687 686 0
-687 700 0
688 -962 -685 0
-688 962 0
-688 685 0
689 -37 -31 0
-689 37 0
-689 31 0
690 -689 -18 0
-690 689 0
-690 18 0
691 -963 -688 0
-691 963 0
-691 688 0
692 -731 -21 0
-692 731 0
-692 21 0
693 -692 -724 0
-693 692 0
-693 724 0
694 -964 -691 0
-694 964 0
-694 691 0
695 -790 -698 0
-695 790 0
-695 698 0
696 -695 -866 0
-696 695 0
-696 866 0
697 -965 -694 0
-697 965 0
-697 694 0
-698 -1 0
698 1 0
-699 -3 0
699 3 0
-700 -2 0
700 2 0
-701 -5 0
701 5 0
-702 -54 0
702 54 0
-703 -52 0
703 52 0
-704 -57 0
704 57 0
-705 -9 0
705 9 0
-706 -60 0
706 60 0
-707 -63 0
707 63 0
-708 -15 0
708 15 0
-709 -66 0
709 66 0
-710 -16 0
710 16 0
-711 -69 0
711 69 0
-712 -12 0
712 12 0
-713 -72 0
713 72 0
-714 -75 0
714 75 0
-715 -78 0
715 78 0
-716 -81 0
716 81 0
-717 -84 0
717 84 0
-718 -26 0
718 26 0
-719 -87 0
719 87 0
-720 -30 0
720 30 0
-721 -90 0
721 90 0
-722 -31 0
722 31 0
-723 -93 0
723 93 0
-724 -32 0
724 32 0
-725 -96 0
725 96 0
-726 -24 0
726 24 0
-727 -20 0
727 20 0
-728 -99 0
728 99 0
-729 -102 0
729 102 0
-730 -36 0
730 36 0
-731 -35 0
731 35 0
-732 -105 0
732 105 0
-733 -108 0
733 108 0
-734 -7 0
734 7 0
-735 -6 0
735 6 0
-736 -111 0
736 111 0
-737 -40 0
737 40 0
-738 -114 0
738 114 0
-739 -17 0
739 17 0
-740 -117 0
740 117 0
-741 -25 0
741 25 0
-742 -120 0
742 120 0
-743 -123 0
743 123 0
-744 -42 0
744 42 0
-745 -126 0
745 126 0
-746 -128 0
746 128 0
-747 -131 0
747 131 0
-748 -134 0
748 134 0
-749 -14 0
749 14 0
-750 -41 0
750 41 0
-751 -137 0
751 137 0
-752 -140 0
752 140 0
-753 -143 0
753 143 0
-754 -146 0
754 146 0
-755 -149 0
755 149 0
-756 -46 0
756 46 0
-757 -152 0
757 152 0
-758 -39 0
758 39 0
-759 -155 0
759 155 0
-760 -43 0
760 43 0
-761 -158 0
761 158 0
-762 -161 0
762 161 0
-763 -164 0
763 164 0
-764 -167 0
764 167 0
-765 -170 0
765 170 0
-766 -11 0
766 11 0
-767 -173 0
767 173 0
-768 -47 0
768 47 0
-769 -21 0
769 21 0
-770 -176 0
770 176 0
-771 -22 0
771 22 0
-772 -179 0
772 179 0
-773 -182 0
773 182 0
-774 -28 0
774 28 0
-775 -185 0
775 185 0
-776 -188 0
776 188 0
-777 -191 0
777 191 0
-778 -194 0
778 194 0
-779 -38 0
779 38 0
-780 -197 0
780 197 0
-781 -48 0
781 48 0
-782 -200 0
782 200 0
-783 -203 0
783 203 0
-784 -206 0
784 206 0
-785 -209 0
785 209 0
-786 -212 0
786 212 0
-787 -49 0
787 49 0
-788 -215 0
788 215 0
-789 -218 0
789 218 0
-790 -34 0
790 34 0
-791 -29 0
791 29 0
-792 -221 0
792 221 0
-793 -224 0
793 224 0
-794 -227 0
794 227 0
-795 -44 0
795 44 0
-796 -230 0
796 230 0
-797 -233 0
797 233 0
-798 -236 0
798 236 0
-799 -239 0
799 239 0
-800 -27 0
800 27 0
-801 -242 0
801 242 0
-802 -245 0
802 245 0
-803 -248 0
803 248 0
-804 -251 0
804 251 0
-805 -10 0
805 10 0
-806 -13 0
806 13 0
-807 -254 0
807 254 0
-808 -19 0
808 19 0
-809 -257 0
809 257 0
-810 -260 0
810 260 0
-811 -263 0
811 263 0
-812 -23 0
812 23 0
-813 -45 0
813 45 0
-814 -266 0
814 266 0
-815 -33 0
815 33 0
-816 -269 0
816 269 0
-817 -272 0
817 272 0
-818 -275 0
818 275 0
-819 -278 0
819 278 0
-820 -281 0
820 281 0
-821 -284 0
821 284 0
-822 -18 0
822 18 0
-823 -287 0
823 287 0
-824 -290 0
824 290 0
-825 -293 0
825 293 0
-826 -296 0
826 296 0
-827 -299 0
827 299 0
-828 -302 0
828 302 0
-829 -305 0
829 305 0
-830 -308 0
830 308 0
-831 -311 0
831 311 0
-832 -314 0
832 314 0
-833 -4 0
833 4 0
-834 -317 0
834 317 0
-835 -320 0
835 320 0
-836 -323 0
836 323 0
-837 -326 0
837 326 0
-838 -329 0
838 329 0
-839 -332 0
839 332 0
-840 -335 0
840 335 0
-841 -338 0
841 338 0
-842 -341 0
842 341 0
-843 -344 0
843 344 0
-844 -347 0
844 347 0
-845 -350 0
845 350 0
-846 -353 0
846 353 0
-847 -356 0
847 356 0
-848 -359 0
848 359 0
-849 -362 0
849 362 0
-850 -364 0
850 364 0
-851 -8 0
851 8 0
-852 -367 0
852 367 0
-853 -370 0
853 370 0
-854 -373 0
854 373 0
-855 -376 0
855 376 0
-856 -379 0
856 379 0
-857 -382 0
857 382 0
-858 -385 0
858 385 0
-859 -388 0
859 388 0
-860 -391 0
860 391 0
-861 -394 0
861 394 0
-862 -397 0
862 397 0
-863 -399 0
863 399 0
-864 -402 0
864 402 0
-865 -405 0
865 405 0
-866 -50 0
866 50 0
-867 -408 0
867 408 0
-868 -411 0
868 411 0
-869 -414 0
869 414 0
-870 -417 0
870 417 0
-871 -420 0
871 420 0
-872 -423 0
872 423 0
-873 -426 0
873 426 0
-874 -429 0
874 429 0
-875 -432 0
875 432 0
-876 -435 0
876 435 0
-877 -438 0
877 438 0
-878 -441 0
878 441 0
-879 -444 0
879 444 0
-880 -447 0
880 447 0
-881 -450 0
881 450 0
-882 -453 0
882 453 0
-883 -456 0
883 456 0
-884 -459 0
884 459 0
-885 -462 0
885 462 0
-886 -465 0
886 465 0
-887 -468 0
887 468 0
-888 -471 0
888 471 0
-889 -474 0
889 474 0
-890 -477 0
890 477 0
-891 -480 0
891 480 0
-892 -483 0
892 483 0
-893 -486 0
893 486 0
-894 -489 0
894 489 0
-895 -492 0
895 492 0
-896 -495 0
896 495 0
-897 -498 0
897 498 0
-898 -501 0
898 501 0
-899 -504 0
899 504 0
-900 -507 0
900 507 0
-901 -510 0
901 510 0
-902 -37 0
902 37 0
-903 -513 0
903 513 0
-904 -516 0
904 516 0
-905 -519 0
905 519 0
-906 -522 0
906 522 0
-907 -525 0
907 525 0
-908 -528 0
908 528 0
-909 -531 0
909 531 0
-910 -534 0
910 534 0
-911 -537 0
911 537 0
-912 -540 0
912 540 0
-913 -543 0
913 543 0
-914 -546 0
914 546 0
-915 -549 0
915 549 0
-916 -552 0
916 552 0
-917 -555 0
917 555 0
-918 -558 0
918 558 0
-919 -561 0
919 561 0
-920 -564 0
920 564 0
-921 -566 0
921 566 0
-922 -569 0
922 569 0
-923 -572 0
923 572 0
-924 -575 0
924 575 0
-925 -578 0
925 578 0
-926 -580 0
926 580 0
-927 -583 0
927 583 0
-928 -586 0
928 586 0
-929 -589 0
929 589 0
-930 -592 0
930 592 0
-931 -595 0
931 595 0
-932 -598 0
932 598 0
-933 -601 0
933 601 0
-934 -604 0
934 604 0
-935 -607 0
935 607 0
-936 -610 0
936 610 0
-937 -613 0
937 613 0
-938 -616 0
938 616 0
-939 -619 0
939 619 0
-940 -621 0
940 621 0
-941 -624 0
941 624 0
-942 -627 0
942 627 0
-943 -630 0
943 630 0
-944 -633 0
944 633 0
-945 -636 0
945 636 0
-946 -639 0
946 639 0
-947 -642 0
947 642 0
-948 -645 0
948 645 0
-949 -648 0
949 648 0
-950 -651 0
950 651 0
-951 -654 0
951 654 0
-952 -657 0
952 657 0
-953 -660 0
953 660 0
-954 -663 0
954 663 0
-955 -666 0
955 666 0
-956 -669 0
956 669 0
-957 -672 0
957 672 0
-958 -675 0
958 675 0
-959 -678 0
959 678 0
-960 -681 0
960 681 0
-961 -684 0
961 684 0
-962 -687 0
962 687 0
-963 -690 0
963 690 0
-964 -693 0
964 693 0
-965 -696 0
965 696 0
697 0
